NAME : gr96.tsp
COMMENT : Optimal tour for gr96.tsp
TYPE : TOUR
DIMENSION : 96
Total Length: 551.0705596550753
TOUR_SECTION
1
30
31
32
36
37
38
35
34
29
2
3
4
5
6
8
7
9
10
12
13
14
15
16
17
20
18
19
21
25
24
23
22
26
28
27
65
96
94
95
93
92
78
88
89
90
91
83
81
82
84
87
86
85
74
73
71
72
75
77
76
68
67
66
64
63
62
61
60
59
70
69
57
56
58
54
48
47
11
33
44
39
40
41
42
43
49
45
46
50
52
53
55
51
79
80
-1
EOF
